Tasks lengths
[44, 49, 55, 61, 63, 66, 79, 79, 83, 94, 99, 109, 109, 110, 115, 121, 121, 121, 125, 130, 132, 137, 138, 143, 151, 154, 154, 155, 194, 217, 232, 267, 274, 279, 298, 335, 338, 346, 384, 448]
12
Set parameter Username
Set parameter Threads to value 1
Academic license - for non-commercial use only - expires 2022-07-11
Set parameter TimeLimit to value 300
Gurobi Optimizer version 9.5.1 build v9.5.1rc2 (linux64)
Thread count: 2 physical cores, 4 logical processors, using up to 1 threads
Optimize a model with 536 rows, 492 columns and 1954 nonzeros
Model fingerprint: 0x8b675f44
Model has 480 quadratic objective terms
Variable types: 12 continuous, 480 integer (480 binary)
Coefficient statistics:
  Matrix range     [1e+00, 4e+02]
  Objective range  [0e+00, 0e+00]
  QObjective range [5e-04, 5e-03]
  Bounds range     [1e+00, 1e+00]
  RHS range        [1e+00, 1e+03]
Presolve removed 229 rows and 209 columns
Presolve time: 0.06s
Presolved: 578 rows, 554 columns, 1905 nonzeros
Variable types: 0 continuous, 554 integer (271 binary)

Root relaxation: objective 0.000000e+00, 142 iterations, 0.00 seconds (0.00 work units)

    Nodes    |    Current Node    |     Objective Bounds      |     Work
 Expl Unexpl |  Obj  Depth IntInf | Incumbent    BestBd   Gap | It/Node Time

     0     0    0.00000    0   50          -    0.00000      -     -    0s
H    0     0                       3.8173720    0.00000   100%     -    0s
H    0     0                       3.5487259    0.00000   100%     -    0s
     0     0    0.00000    0   61    3.54873    0.00000   100%     -    0s
     0     0    0.00000    0   59    3.54873    0.00000   100%     -    0s
     0     0    0.00000    0   48    3.54873    0.00000   100%     -    0s
     0     0    0.15644    0   54    3.54873    0.15644  95.6%     -    0s
     0     0    0.15644    0   52    3.54873    0.15644  95.6%     -    0s
     0     0    0.77978    0   66    3.54873    0.77978  78.0%     -    0s
     0     0    0.80518    0   61    3.54873    0.80518  77.3%     -    0s
     0     0    0.80518    0   61    3.54873    0.80518  77.3%     -    0s
     0     0    1.35451    0   88    3.54873    1.35451  61.8%     -    0s
     0     0    1.36738    0   69    3.54873    1.36738  61.5%     -    0s
     0     0    1.62271    0   99    3.54873    1.62271  54.3%     -    0s
     0     0    1.62271    0   98    3.54873    1.62271  54.3%     -    0s
H    0     0                       3.4842584    1.62271  53.4%     -    0s
H    0     0                       3.1731173    1.69426  46.6%     -    0s
H    0     0                       2.8622273    1.69426  40.8%     -    0s
     0     2    1.69426    0   96    2.86223    1.69426  40.8%     -    0s
H   26    22                       2.8456955    1.69426  40.5%  43.0    0s
H   27    23                       2.8228120    1.69426  40.0%  44.0    0s
H   52    46                       2.7958478    1.69426  39.4%  36.0    0s
H   54    48                       2.7813639    1.69426  39.1%  35.7    0s
H  130   110                       2.7793179    1.69426  39.0%  20.1    0s
H  135   114                       2.6740721    1.69426  36.6%  19.4    0s
H  156   124                       2.6412265    1.73352  34.4%  19.0    0s
H  162   125                       2.5760982    1.73352  32.7%  18.6    0s
H  183   141                       2.5664984    1.73352  32.5%  18.6    0s
H  189   143                       2.5517897    1.73352  32.1%  18.5    0s
H  210   148                       2.4930165    1.73352  30.5%  18.3    0s
H  537   361                       2.4918014    2.13649  14.3%  16.6    1s
H  901   398                       2.4782929    2.19730  11.3%  26.2    3s
H  966   389                       2.4761010    2.20916  10.8%  26.2    3s
H 1400   381                       2.4517415    2.22490  9.25%  24.9    4s
H 1407   346                       2.4370057    2.22511  8.69%  25.0    4s
  1548   373    2.34165   27   78    2.43701    2.23801  8.17%  26.0    5s
  3281   670     cutoff   39         2.43701    2.30343  5.48%  29.0   10s
  5212   759     cutoff   24         2.43701    2.35205  3.49%  29.6   15s
  7094   344    2.40633   26   92    2.43701    2.40633  1.26%  29.1   20s

Cutting planes:
  Gomory: 1
  Cover: 72
  Implied bound: 259
  Projected implied bound: 15
  Clique: 9
  MIR: 121
  Flow cover: 630
  GUB cover: 13
  RLT: 4
  Relax-and-lift: 25

Explored 7680 nodes (224310 simplex iterations) in 21.21 seconds (14.07 work units)
Thread count was 1 (of 4 available processors)

Solution count 10: 2.43701 2.45174 2.4761 ... 2.64123

Optimal solution found (tolerance 1.00e-04)
Best objective 2.437005731259e+00, best bound 2.436805316192e+00, gap 0.0082%
